c Random 5-CNF over 30 variables and 60 clauses
c Generated with `cnfgen`
c (C) 2012-2016 Massimo Lauria <lauria.massimo@gmail.com>
c https://massimolauria.github.io/cnfgen
c
c COMMAND LINE: cnfgen --output tmp-5-30-60.dimacs --output-format dimacs randkcnf 5 30 60
c
c sdimacs generated by gen-sdimacs
c
p cnf 30 60
r 0.5 1 2 3 4 5 6 7 8 9 10 11 12 13 14 15 0
e  16 17 18 19 20 21 22 23 24 25 26 27 28 29 30 0
-9 -14 -19 23 24 0
-3 -6 -13 20 27 0
6 -10 -16 28 30 0
-2 3 5 20 -29 0
7 -11 22 -23 24 0
3 5 6 8 11 0
-4 6 9 11 -19 0
-3 4 -16 -20 -22 0
-5 9 -18 -24 -26 0
2 10 -19 -21 -26 0
10 -13 -18 29 30 0
-16 20 23 24 -26 0
7 -12 -13 -22 -28 0
-5 -7 -8 -17 29 0
-7 10 17 22 -23 0
-1 3 -10 -21 22 0
5 -6 7 -22 -26 0
6 -9 -14 18 -19 0
-12 -16 -20 26 30 0
2 11 16 25 -26 0
-4 9 -10 -24 -25 0
7 15 21 -25 -30 0
-7 10 -17 -19 24 0
-21 22 28 29 30 0
-5 -6 12 -23 -25 0
-12 15 -17 -23 -30 0
-7 9 16 -18 -22 0
3 4 10 11 -21 0
5 -6 8 -14 28 0
5 -13 -17 22 26 0
-6 -11 18 22 25 0
10 19 20 -26 28 0
-1 -9 14 -15 23 0
-17 19 -22 -27 29 0
-5 7 -9 12 -20 0
2 10 -21 28 30 0
2 8 10 16 28 0
8 -10 -15 -16 -28 0
-12 -14 -19 -24 -26 0
2 -3 4 19 24 0
-12 17 21 24 26 0
-7 12 -17 -20 -29 0
-6 -10 18 -24 -26 0
6 -9 -16 -19 23 0
1 -15 17 -21 -29 0
-6 -8 13 -19 -30 0
1 3 9 10 -30 0
-10 -11 -15 -21 -25 0
-1 14 19 -21 -23 0
2 -7 15 17 23 0
-4 -11 -16 -26 27 0
4 -10 18 19 22 0
2 -9 -11 -19 21 0
10 -14 -15 16 17 0
5 18 22 -29 -30 0
8 -16 23 -24 30 0
-12 -14 -20 25 26 0
-3 11 -13 -17 26 0
2 9 11 -23 -24 0
-4 8 -11 17 29 0
